Gurobi 12.0.1:   lim:time = 28800
  mip:bestbound = 1
Set parameter LogToConsole to value 1
  tech:outlev = 1
Set parameter InfUnbdInfo to value 1
Gurobi Optimizer version 12.0.1 build v12.0.1rc0 (win64 - Windows 11.0 (22631.2))

CPU model: Intel(R) Core(TM) i7-10700 CPU @ 2.90GHz, instruction set [SSE2|AVX|AVX2]
Thread count: 8 physical cores, 16 logical processors, using up to 16 threads

Non-default parameters:
TimeLimit  28800
InfUnbdInfo  1

Optimize a model with 465 rows, 1094 columns and 5221 nonzeros
Model fingerprint: 0xa8e17278
Model has 7 quadratic objective terms
Model has 11 quadratic constraints
Model has 315 simple general constraints
  315 AND
Variable types: 21 continuous, 1073 integer (0 binary)
Coefficient statistics:
  Matrix range     [1e+00, 1e+05]
  QMatrix range    [4e+00, 2e+01]
  QLMatrix range   [1e+00, 2e+01]
  Objective range  [2e+01, 3e+02]
  QObjective range [4e+00, 2e+01]
  Bounds range     [1e+00, 1e+00]
  RHS range        [1e+00, 1e+05]
  QRHS range       [7e+01, 1e+02]
Presolve added 643 rows and 0 columns
Presolve removed 0 rows and 136 columns
Presolve time: 0.03s
Presolved: 1606 rows, 1363 columns, 8001 nonzeros
Variable types: 17 continuous, 1346 integer (1346 binary)

Root relaxation: objective 9.789211e+02, 112 iterations, 0.00 seconds (0.00 work units)

    Nodes    |    Current Node    |     Objective Bounds      |     Work
 Expl Unexpl |  Obj  Depth IntInf | Incumbent    BestBd   Gap | It/Node Time

     0     0  978.92106    0   31          -  978.92106      -     -    0s
H    0     0                    1722.8400000  978.92106  43.2%     -    0s
H    0     0                    1692.6100000  978.92106  42.2%     -    0s
H    0     0                    1329.3400000  978.92106  26.4%     -    0s
     0     0 1073.23000    0   21 1329.34000 1073.23000  19.3%     -    0s
     0     0 1073.23000    0   24 1329.34000 1073.23000  19.3%     -    0s
     0     0 1076.94000    0   21 1329.34000 1076.94000  19.0%     -    0s
     0     0 1076.94037    0   35 1329.34000 1076.94037  19.0%     -    0s
     0     0 1078.01250    0   35 1329.34000 1078.01250  18.9%     -    0s
     0     0 1078.01250    0   32 1329.34000 1078.01250  18.9%     -    0s
     0     0 1084.90500    0   30 1329.34000 1084.90500  18.4%     -    0s
     0     0 1084.90500    0   30 1329.34000 1084.90500  18.4%     -    0s
     0     2 1085.67000    0   30 1329.34000 1085.67000  18.3%     -    0s
H   31    64                    1306.5700000 1085.72694  16.9%  21.4    0s
H   32    64                    1218.9900000 1085.72694  10.9%  20.9    0s
H  130    86                    1206.5600000 1085.72694  10.0%  11.4    0s
H  371   125                    1198.8100000 1091.01500  8.99%  12.0    0s
H  387   116                    1183.0600000 1106.77956  6.45%  12.1    0s

Cutting planes:
  Learned: 3
  Gomory: 3
  Cover: 3
  Implied bound: 33
  MIR: 6
  Flow cover: 1
  Inf proof: 4
  Zero half: 3
  RLT: 35
  Relax-and-lift: 1
  BQP: 2

Explored 661 nodes (7535 simplex iterations) in 0.61 seconds (0.46 work units)
Thread count was 16 (of 16 available processors)

Solution count 8: 1183.06 1198.81 1206.56 ... 1722.84

Optimal solution found (tolerance 1.00e-04)
Best objective 1.183060000000e+03, best bound 1.183060000000e+03, gap 0.0000%

AMPL MP initial flat model has 779 variables (0 integer, 758 binary);
Objectives: 1 quadratic; 
Constraints:  465 linear; 11 quadratic;
Logical expressions:  315 and;

AMPL MP final model has 1094 variables (0 integer, 1073 binary);
Objectives: 1 quadratic; 
Constraints:  465 linear; 11 quadratic;
Logical expressions:  315 and;


-----RESULTS INFO-----
running_time:  0.672
TC.best_bound:  1183.059999999999
TC:  1183.0599999999993
MIP Gap (%):  1.9219116143156915e-14
=== Vehicle Routes ===
Vehicle 1: 0 → 4
Vehicle 1: 4 → 0
Vehicle 2: 0 → 20
Vehicle 2: 1 → 2
Vehicle 2: 2 → 5
Vehicle 2: 18 → 1
Vehicle 2: 20 → 18
Vehicle 3: 0 → 12
Vehicle 3: 12 → 0

=== Full Vehicle Routes ===
Vehicle 1: 0 → 4 → 0
Vehicle 2: 0 → 20 → 18 → 1 → 2 → 5 → 10 → 3 → 0
Vehicle 3: 0 → 12 → 0
Arc used by MRT line: y variables:
MRT used: 12 → 13
Customer assigment to PL: u variables:
6 18
7 18
8 13
9 20
11 13
Node is served by regular vehicle: g variables:
1
2
4
5
18
20
12
Customer assigment to Home delivery: gm variables:
1
2
3
4
5
10
Customer's demand delivered to PL: l variables:
6
7
8
9
11
